p tw 96 12001 2 
1 49 
1 51 
1 53 
1 55 
1 57 
1 59 
1 61 
1 63 
1 65 
1 67 
1 69 
1 71 
1 73 
1 75 
1 77 
1 79 
1 81 
1 83 
1 85 
1 87 
1 89 
1 91 
1 93 
1 95 
2 50 
2 52 
2 54 
2 56 
2 58 
2 60 
2 62 
2 64 
2 66 
2 68 
2 70 
2 72 
2 74 
2 76 
2 78 
2 80 
2 82 
2 84 
2 86 
2 88 
2 90 
2 92 
2 94 
2 96 
3 4 
3 49 
3 51 
3 53 
3 55 
3 57 
3 59 
3 61 
3 63 
3 65 
3 67 
3 69 
3 71 
3 74 
3 76 
3 78 
3 80 
3 82 
3 84 
3 86 
3 88 
3 90 
3 92 
3 94 
3 96 
4 50 
4 52 
4 54 
4 56 
4 58 
4 60 
4 62 
4 64 
4 66 
4 68 
4 70 
4 72 
4 73 
4 75 
4 77 
4 79 
4 81 
4 83 
4 85 
4 87 
4 89 
4 91 
4 93 
4 95 
5 6 
5 49 
5 51 
5 53 
5 55 
5 57 
5 59 
5 62 
5 64 
5 66 
5 68 
5 70 
5 72 
5 73 
5 75 
5 77 
5 79 
5 81 
5 83 
5 86 
5 88 
5 90 
5 92 
5 94 
5 96 
6 50 
6 52 
6 54 
6 56 
6 58 
6 60 
6 61 
6 63 
6 65 
6 67 
6 69 
6 71 
6 74 
6 76 
6 78 
6 80 
6 82 
6 84 
6 85 
6 87 
6 89 
6 91 
6 93 
6 95 
7 8 
7 49 
7 51 
7 54 
7 56 
7 58 
7 60 
7 61 
7 63 
7 65 
7 67 
7 70 
7 72 
7 73 
7 75 
7 77 
7 79 
7 82 
7 84 
7 85 
7 87 
7 90 
7 92 
7 94 
7 96 
8 50 
8 52 
8 53 
8 55 
8 57 
8 59 
8 62 
8 64 
8 66 
8 68 
8 69 
8 71 
8 74 
8 76 
8 78 
8 80 
8 81 
8 83 
8 86 
8 88 
8 89 
8 91 
8 93 
8 95 
9 10 
9 49 
9 51 
9 53 
9 55 
9 58 
9 60 
9 61 
9 63 
9 66 
9 68 
9 70 
9 72 
9 73 
9 75 
9 78 
9 80 
9 82 
9 84 
9 86 
9 88 
9 89 
9 91 
9 93 
9 95 
10 50 
10 52 
10 54 
10 56 
10 57 
10 59 
10 62 
10 64 
10 65 
10 67 
10 69 
10 71 
10 74 
10 76 
10 77 
10 79 
10 81 
10 83 
10 85 
10 87 
10 90 
10 92 
10 94 
10 96 
11 12 
11 49 
11 51 
11 53 
11 55 
11 58 
11 60 
11 62 
11 64 
11 66 
11 68 
11 69 
11 71 
11 74 
11 76 
11 77 
11 79 
11 82 
11 84 
11 85 
11 87 
11 89 
11 91 
11 94 
11 96 
12 50 
12 52 
12 54 
12 56 
12 57 
12 59 
12 61 
12 63 
12 65 
12 67 
12 70 
12 72 
12 73 
12 75 
12 78 
12 80 
12 81 
12 83 
12 86 
12 88 
12 90 
12 92 
12 93 
12 95 
13 14 
13 49 
13 51 
13 54 
13 56 
13 57 
13 59 
13 61 
13 63 
13 66 
13 68 
13 70 
13 72 
13 74 
13 76 
13 78 
13 80 
13 81 
13 83 
13 85 
13 87 
13 89 
13 91 
13 94 
13 96 
14 50 
14 52 
14 53 
14 55 
14 58 
14 60 
14 62 
14 64 
14 65 
14 67 
14 69 
14 71 
14 73 
14 75 
14 77 
14 79 
14 82 
14 84 
14 86 
14 88 
14 90 
14 92 
14 93 
14 95 
15 16 
15 49 
15 51 
15 53 
15 55 
15 58 
15 60 
15 62 
15 64 
15 65 
15 67 
15 70 
15 72 
15 74 
15 76 
15 78 
15 80 
15 81 
15 83 
15 85 
15 87 
15 90 
15 92 
15 93 
15 95 
16 50 
16 52 
16 54 
16 56 
16 57 
16 59 
16 61 
16 63 
16 66 
16 68 
16 69 
16 71 
16 73 
16 75 
16 77 
16 79 
16 82 
16 84 
16 86 
16 88 
16 89 
16 91 
16 94 
16 96 
17 18 
17 49 
17 51 
17 54 
17 56 
17 58 
17 60 
17 62 
17 64 
17 65 
17 67 
17 69 
17 71 
17 73 
17 75 
17 78 
17 80 
17 81 
17 83 
17 86 
17 88 
17 89 
17 91 
17 94 
17 96 
18 50 
18 52 
18 53 
18 55 
18 57 
18 59 
18 61 
18 63 
18 66 
18 68 
18 70 
18 72 
18 74 
18 76 
18 77 
18 79 
18 82 
18 84 
18 85 
18 87 
18 90 
18 92 
18 93 
18 95 
19 20 
19 49 
19 51 
19 54 
19 56 
19 57 
19 59 
19 62 
19 64 
19 65 
19 67 
19 70 
19 72 
19 74 
19 76 
19 77 
19 79 
19 82 
19 84 
19 86 
19 88 
19 89 
19 91 
19 93 
19 95 
20 50 
20 52 
20 53 
20 55 
20 58 
20 60 
20 61 
20 63 
20 66 
20 68 
20 69 
20 71 
20 73 
20 75 
20 78 
20 80 
20 81 
20 83 
20 85 
20 87 
20 90 
20 92 
20 94 
20 96 
21 22 
21 49 
21 51 
21 54 
21 56 
21 58 
21 60 
21 61 
21 63 
21 66 
21 68 
21 69 
21 71 
21 74 
21 76 
21 77 
21 79 
21 81 
21 83 
21 86 
21 88 
21 90 
21 92 
21 93 
21 95 
22 50 
22 52 
22 53 
22 55 
22 57 
22 59 
22 62 
22 64 
22 65 
22 67 
22 70 
22 72 
22 73 
22 75 
22 78 
22 80 
22 82 
22 84 
22 85 
22 87 
22 89 
22 91 
22 94 
22 96 
23 24 
23 49 
23 51 
23 54 
23 56 
23 57 
23 59 
23 62 
23 64 
23 66 
23 68 
23 69 
23 71 
23 73 
23 75 
23 78 
23 80 
23 82 
23 84 
23 85 
23 87 
23 90 
23 92 
23 93 
23 95 
24 50 
24 52 
24 53 
24 55 
24 58 
24 60 
24 61 
24 63 
24 65 
24 67 
24 70 
24 72 
24 74 
24 76 
24 77 
24 79 
24 81 
24 83 
24 86 
24 88 
24 89 
24 91 
24 94 
24 96 
25 26 
25 49 
25 52 
25 53 
25 56 
25 57 
25 60 
25 61 
25 64 
25 65 
25 68 
25 69 
25 72 
25 73 
25 76 
25 77 
25 80 
25 81 
25 84 
25 85 
25 88 
25 89 
25 92 
25 93 
25 96 
26 50 
26 51 
26 54 
26 55 
26 58 
26 59 
26 62 
26 63 
26 66 
26 67 
26 70 
26 71 
26 74 
26 75 
26 78 
26 79 
26 82 
26 83 
26 86 
26 87 
26 90 
26 91 
26 94 
26 95 
27 28 
27 49 
27 52 
27 53 
27 56 
27 57 
27 60 
27 61 
27 64 
27 65 
27 68 
27 69 
27 72 
27 74 
27 75 
27 78 
27 79 
27 82 
27 83 
27 86 
27 87 
27 90 
27 91 
27 94 
27 95 
28 50 
28 51 
28 54 
28 55 
28 58 
28 59 
28 62 
28 63 
28 66 
28 67 
28 70 
28 71 
28 73 
28 76 
28 77 
28 80 
28 81 
28 84 
28 85 
28 88 
28 89 
28 92 
28 93 
28 96 
29 30 
29 49 
29 52 
29 53 
29 56 
29 57 
29 60 
29 62 
29 63 
29 66 
29 67 
29 70 
29 71 
29 73 
29 76 
29 77 
29 80 
29 81 
29 84 
29 86 
29 87 
29 90 
29 91 
29 94 
29 95 
30 50 
30 51 
30 54 
30 55 
30 58 
30 59 
30 61 
30 64 
30 65 
30 68 
30 69 
30 72 
30 74 
30 75 
30 78 
30 79 
30 82 
30 83 
30 85 
30 88 
30 89 
30 92 
30 93 
30 96 
31 32 
31 49 
31 52 
31 54 
31 55 
31 58 
31 59 
31 61 
31 64 
31 65 
31 68 
31 70 
31 71 
31 73 
31 76 
31 77 
31 80 
31 82 
31 83 
31 85 
31 88 
31 90 
31 91 
31 94 
31 95 
32 50 
32 51 
32 53 
32 56 
32 57 
32 60 
32 62 
32 63 
32 66 
32 67 
32 69 
32 72 
32 74 
32 75 
32 78 
32 79 
32 81 
32 84 
32 86 
32 87 
32 89 
32 92 
32 93 
32 96 
33 34 
33 49 
33 52 
33 53 
33 56 
33 58 
33 59 
33 61 
33 64 
33 66 
33 67 
33 70 
33 71 
33 73 
33 76 
33 78 
33 79 
33 82 
33 83 
33 86 
33 87 
33 89 
33 92 
33 93 
33 96 
34 50 
34 51 
34 54 
34 55 
34 57 
34 60 
34 62 
34 63 
34 65 
34 68 
34 69 
34 72 
34 74 
34 75 
34 77 
34 80 
34 81 
34 84 
34 85 
34 88 
34 90 
34 91 
34 94 
34 95 
35 36 
35 49 
35 52 
35 53 
35 56 
35 58 
35 59 
35 62 
35 63 
35 66 
35 67 
35 69 
35 72 
35 74 
35 75 
35 77 
35 80 
35 82 
35 83 
35 85 
35 88 
35 89 
35 92 
35 94 
35 95 
36 50 
36 51 
36 54 
36 55 
36 57 
36 60 
36 61 
36 64 
36 65 
36 68 
36 70 
36 71 
36 73 
36 76 
36 78 
36 79 
36 81 
36 84 
36 86 
36 87 
36 90 
36 91 
36 93 
36 96 
37 38 
37 49 
37 52 
37 54 
37 55 
37 57 
37 60 
37 61 
37 64 
37 66 
37 67 
37 70 
37 71 
37 74 
37 75 
37 78 
37 79 
37 81 
37 84 
37 85 
37 88 
37 89 
37 92 
37 94 
37 95 
38 50 
38 51 
38 53 
38 56 
38 58 
38 59 
38 62 
38 63 
38 65 
38 68 
38 69 
38 72 
38 73 
38 76 
38 77 
38 80 
38 82 
38 83 
38 86 
38 87 
38 90 
38 91 
38 93 
38 96 
39 40 
39 49 
39 52 
39 53 
39 56 
39 58 
39 59 
39 62 
39 63 
39 65 
39 68 
39 70 
39 71 
39 74 
39 75 
39 78 
39 79 
39 81 
39 84 
39 85 
39 88 
39 90 
39 91 
39 93 
39 96 
40 50 
40 51 
40 54 
40 55 
40 57 
40 60 
40 61 
40 64 
40 66 
40 67 
40 69 
40 72 
40 73 
40 76 
40 77 
40 80 
40 82 
40 83 
40 86 
40 87 
40 89 
40 92 
40 94 
40 95 
41 42 
41 49 
41 52 
41 54 
41 55 
41 58 
41 59 
41 62 
41 63 
41 65 
41 68 
41 69 
41 72 
41 73 
41 76 
41 78 
41 79 
41 81 
41 84 
41 86 
41 87 
41 89 
41 92 
41 94 
41 95 
42 50 
42 51 
42 53 
42 56 
42 57 
42 60 
42 61 
42 64 
42 66 
42 67 
42 70 
42 71 
42 74 
42 75 
42 77 
42 80 
42 82 
42 83 
42 85 
42 88 
42 90 
42 91 
42 93 
42 96 
43 44 
43 49 
43 52 
43 54 
43 55 
43 57 
43 60 
43 62 
43 63 
43 65 
43 68 
43 70 
43 71 
43 74 
43 75 
43 77 
43 80 
43 82 
43 83 
43 86 
43 87 
43 89 
43 92 
43 93 
43 96 
44 50 
44 51 
44 53 
44 56 
44 58 
44 59 
44 61 
44 64 
44 66 
44 67 
44 69 
44 72 
44 73 
44 76 
44 78 
44 79 
44 81 
44 84 
44 85 
44 88 
44 90 
44 91 
44 94 
44 95 
45 46 
45 49 
45 52 
45 54 
45 55 
45 58 
45 59 
45 61 
45 64 
45 66 
45 67 
45 69 
45 72 
45 74 
45 75 
45 77 
45 80 
45 81 
45 84 
45 86 
45 87 
45 90 
45 91 
45 93 
45 96 
46 50 
46 51 
46 53 
46 56 
46 57 
46 60 
46 62 
46 63 
46 65 
46 68 
46 70 
46 71 
46 73 
46 76 
46 78 
46 79 
46 82 
46 83 
46 85 
46 88 
46 89 
46 92 
46 94 
46 95 
47 48 
47 49 
47 52 
47 54 
47 55 
47 57 
47 60 
47 62 
47 63 
47 66 
47 67 
47 69 
47 72 
47 73 
47 76 
47 78 
47 79 
47 82 
47 83 
47 85 
47 88 
47 90 
47 91 
47 93 
47 96 
48 50 
48 51 
48 53 
48 56 
48 58 
48 59 
48 61 
48 64 
48 65 
48 68 
48 70 
48 71 
48 74 
48 75 
48 77 
48 80 
48 81 
48 84 
48 86 
48 87 
48 89 
48 92 
48 94 
48 95 
49 50 
51 52 
53 54 
55 56 
57 58 
59 60 
61 62 
63 64 
65 66 
67 68 
69 70 
71 72 
73 74 
75 76 
77 78 
79 80 
81 82 
83 84 
85 86 
87 88 
89 90 
91 92 
93 94 
95 96 
